NAME : pr2392.557062.tour
COMMENT : Cost = 38832_557062
COMMENT : Found by LKH [Keld Helsgaun] Thu Nov 16 17:37:15 2017
TYPE : TOUR
DIMENSION : 2411
TOUR_SECTION
1
2391
2393
2390
2394
2389
2395
2388
2396
2379
2372
2346
2345
2349
2350
2163
2165
2169
2172
2173
2174
2175
2244
2243
2242
2240
2241
2190
2191
2192
2199
2198
1600
1599
1598
1597
1596
1595
1594
1609
1610
1611
2070
2069
2068
2067
2066
2065
2064
2063
2062
2061
2060
2059
2058
2057
2056
2055
2054
1613
1612
1593
2200
2201
2202
2203
2205
2207
2239
2238
2237
2236
2235
2234
2245
2246
2247
2279
2280
2281
2282
2344
2340
2339
2373
2375
2378
2399
2331
2287
2292
2294
2293
2269
2264
2258
2257
2256
1519
1520
1521
1522
1523
1524
1525
1526
1527
1528
1529
1530
1532
1533
1577
1632
1633
1634
1635
1674
1673
1672
1671
1668
1667
1666
1722
1723
1724
1721
1720
1719
1718
1725
1726
1727
1728
1729
1730
1731
1732
1733
1734
1735
1736
1737
1738
1747
1749
1755
1756
1757
1760
1761
1762
1763
1759
1758
1779
1778
1777
1776
1775
1764
1765
1766
1774
1773
1772
1771
1770
1769
1767
1768
1819
1820
1821
1822
1823
1824
1825
1826
1827
1828
1829
1830
1831
1832
1833
1834
1835
1836
1837
1838
1839
1840
1841
1842
1843
1844
1845
1846
1847
1653
1654
1655
1656
1657
1658
1659
1660
1661
1662
1664
1665
1663
1669
1670
1636
1637
1631
1630
1629
1628
1627
1626
1625
1624
1623
1579
1578
1580
1581
1582
1583
1584
1585
1531
2217
2218
2221
2222
2223
2224
2225
2226
2227
2228
2255
2259
2261
2263
2270
2274
2275
2291
2288
2289
2286
2334
2404
5
16
1300
1301
1291
1351
1352
1353
1350
1348
1349
1354
1355
1356
1357
1358
1359
1360
1361
1362
1373
1372
1371
1363
1364
1365
1366
1367
1368
1370
1369
1246
1247
1248
1253
1254
1255
1219
1220
1221
1222
1223
1224
1225
1167
1166
1172
1171
1168
1169
1170
1173
1174
1178
1177
1176
1175
1150
1149
1148
1147
359
358
355
354
356
357
349
348
344
343
345
347
346
350
351
352
353
176
177
178
175
174
173
172
179
181
184
185
187
188
186
192
193
195
200
201
202
203
204
205
126
127
128
129
130
131
132
133
134
135
136
137
138
139
140
141
142
143
144
145
146
147
148
149
150
151
153
152
1209
1210
1211
62
61
50
51
45
44
36
35
29
28
22
23
11
8
2400
2326
2322
2320
2319
2313
2312
2308
2306
2305
2304
1328
1329
1503
1501
1497
1493
1485
1482
1477
1478
1476
1475
1549
1548
1546
1545
1563
873
872
871
870
869
868
865
864
862
863
1698
855
854
852
851
850
849
848
847
668
667
666
665
673
674
678
683
684
685
686
687
688
689
690
691
692
693
694
695
696
697
698
699
700
701
627
626
628
629
630
631
632
633
634
635
636
637
638
639
640
641
642
643
644
645
646
647
648
649
650
651
652
653
654
655
656
657
658
659
660
661
662
663
664
1744
1743
1742
1741
1708
1709
1706
1707
1705
1704
1703
1702
1701
1700
1699
1697
1695
1696
1690
1689
866
867
1683
1682
1681
1564
1565
1566
1567
1568
1569
1570
1537
1538
1542
1541
1540
1479
1481
1483
1484
1486
1492
1491
1498
1511
1512
1509
2267
2301
2300
2299
2297
2315
2317
2324
2325
2409
2333
1480
1543
1544
1562
885
825
826
829
830
836
835
834
767
766
765
764
763
762
758
757
756
747
745
744
743
742
741
607
606
608
609
610
611
612
613
614
615
616
617
620
619
618
561
560
562
559
558
563
557
556
555
554
553
552
551
550
549
564
565
566
567
568
569
570
571
572
573
579
580
578
577
574
575
576
605
604
603
602
601
600
599
750
751
752
753
778
779
777
780
781
782
809
810
811
812
813
814
815
816
817
818
819
820
891
892
1010
1014
1015
1016
1017
1554
1553
1552
1455
1452
1447
1444
1442
1439
1463
1332
2311
1308
2402
3
2329
2323
2321
2318
2314
2298
2303
2302
1508
1510
1502
1499
1496
1495
1494
1468
1469
1471
1472
1473
1474
1550
1547
1556
1557
1558
1559
1560
1561
879
878
877
876
875
874
861
860
859
858
856
857
853
837
838
839
840
841
842
843
844
845
846
669
670
671
672
676
675
677
679
680
681
682
708
709
707
706
705
704
703
702
718
719
720
721
624
625
622
621
623
722
723
724
725
726
727
728
729
732
733
735
736
734
731
730
717
716
715
714
710
711
712
713
737
738
739
740
746
749
748
754
755
759
760
761
776
773
772
771
774
775
768
769
770
833
832
831
828
827
822
821
823
824
889
890
888
887
886
884
883
882
881
880
1011
1012
1013
1555
1551
1456
1457
1458
1459
1460
1470
1467
1466
1465
1500
1504
1505
1507
1331
1326
2310
2327
2405
4
1304
1321
1323
1339
1338
1337
1336
1409
1408
1410
1411
1413
1414
1418
1420
1421
1422
1428
1427
1431
1437
1436
1027
1026
1025
1024
1023
1022
1021
1019
1018
1004
1005
1006
1007
1008
894
897
901
902
900
899
898
802
803
804
805
806
807
808
783
784
785
786
787
788
789
790
791
934
933
932
930
928
925
924
923
926
927
947
949
950
469
470
471
472
465
466
467
468
951
952
953
956
957
958
959
920
919
918
917
916
915
914
912
911
910
909
908
993
992
991
990
989
988
1096
1099
1100
1103
1102
1101
1093
1095
1088
1089
1087
1086
1085
1084
1083
1082
1081
1080
1075
1074
1073
1072
1071
1070
1068
1066
1058
1059
1060
1053
1049
1048
1040
1041
1042
1043
1239
1240
1241
1242
1243
1385
1386
1387
1388
1389
1390
1391
1392
1393
1394
1395
1396
1397
1399
1400
1401
1402
1406
1403
1342
1341
1340
1319
1320
1318
1317
1315
1303
2328
2401
7
12
21
20
30
33
34
46
47
48
49
1269
1270
1271
1268
1267
1266
1265
1264
1261
1259
1212
1213
1208
155
156
154
157
158
160
159
1193
1192
1191
1194
1195
1196
1190
1189
170
169
168
167
166
165
164
163
161
162
197
198
199
196
194
191
190
189
252
253
247
248
251
250
249
246
245
244
243
242
241
240
239
238
237
236
235
234
233
232
231
230
229
228
227
226
225
224
223
222
219
218
217
216
215
214
213
212
211
210
209
208
207
206
220
221
124
125
123
122
121
120
119
118
117
116
115
114
113
112
111
110
109
108
107
106
105
104
103
102
101
100
99
98
97
96
95
94
93
92
91
90
89
88
87
86
85
84
83
82
81
80
79
78
77
76
75
74
73
72
71
70
69
68
67
66
65
64
63
60
59
58
57
56
55
54
53
52
43
42
41
40
39
38
37
27
26
25
24
10
9
2398
1309
1310
2309
2307
1327
1330
1506
1464
1462
1461
1445
1446
1451
1450
1453
1454
1020
1009
893
895
896
801
800
799
797
796
795
794
793
792
935
936
937
595
596
597
598
590
589
585
586
584
583
582
581
512
511
513
514
515
516
517
518
519
520
521
522
523
524
548
547
546
545
544
543
542
541
540
539
538
537
536
535
534
533
532
525
526
531
530
527
529
528
504
503
507
508
505
506
510
509
587
588
591
592
593
594
938
939
940
941
943
942
931
929
798
996
997
1003
1078
1028
1029
1030
1032
1031
1435
1434
1432
1430
1429
1419
1412
1335
1322
1314
1305
1306
2407
2377
2376
2374
2336
2337
2338
2341
2342
2283
2278
2277
2273
2272
2248
2249
2250
2251
2233
2232
2208
2209
2210
2213
2206
2204
1592
1616
1615
1614
2053
2052
2051
2050
2049
2048
2047
2046
2045
2044
2043
2042
2041
2040
2039
2038
2037
2036
2035
2034
2033
2030
2032
2031
2006
2005
2004
2003
1996
1995
1994
1988
1989
1987
1986
1985
1982
1981
1980
1979
1978
1977
1976
1975
1876
1874
1875
1878
1877
1974
1973
1972
1971
1880
1879
1881
1882
1883
1884
1885
1886
1887
1888
1889
1890
1891
1892
1893
1894
1895
1896
1897
1898
1899
1900
1901
1902
1903
1904
1905
1906
1907
1908
1909
1910
1911
1912
1913
1914
1915
1916
1917
1918
1919
1920
1921
2098
2099
2100
2101
2102
2103
2104
2105
2106
2107
2108
2109
2110
2111
2112
2113
2119
2120
2121
2122
2123
2124
2125
2126
2127
2128
2129
2130
2131
2132
2133
2134
2135
2136
2137
2138
2139
2140
2141
2142
2143
2144
2145
2146
2147
2148
2150
2149
2151
2152
2153
2154
2155
2156
2157
2160
2161
2357
2358
2359
2360
2361
2362
2364
2365
2370
2381
2382
2383
2384
2385
2386
2406
2330
2332
2316
2296
2295
2268
2266
2265
1513
1514
1515
1516
1517
1518
1489
1488
1490
1487
1539
1536
1534
1535
1571
1572
1573
1574
1575
1576
1680
1679
1678
1675
1676
1677
1684
1685
1686
1687
1688
1691
1692
1693
1694
1712
1711
1710
1714
1713
1717
1715
1716
1739
1740
1746
1745
1748
1750
1751
1752
1753
1754
1781
1782
1780
1783
1784
1785
1786
1787
1788
1789
1790
1791
1792
1793
1794
1795
1796
1797
1798
1799
1800
1801
1802
1803
1804
1805
1806
1807
1808
1809
1810
1817
1818
1816
1811
1812
1815
1813
1814
1871
1872
1873
1870
1869
1868
1867
1866
1865
1864
1863
1862
1861
1860
1859
1858
1857
1856
1855
1854
1853
1852
1851
1850
1849
1848
1652
1651
1650
1649
1648
1647
1646
1645
1644
1643
1642
1641
1640
1638
1639
1617
1618
1619
1620
1621
1622
1591
1590
1589
1588
1587
1586
2214
2215
2216
2212
2211
2219
2220
2231
2230
2229
2252
2253
2254
2260
2262
2271
2276
2290
2284
2285
2343
2335
2
2397
2387
2380
2371
2368
2367
2347
2348
2351
2162
2164
2166
2168
2170
2176
2177
2184
2185
2186
2187
2188
2189
2193
2194
2197
1601
1602
1603
1604
1605
1606
1608
2073
2074
2071
2072
2075
2076
2077
2078
2079
2082
2083
2084
2023
2022
2027
2024
2025
2026
2029
2028
2021
2020
2019
2018
2017
2016
2015
2014
2013
2012
2011
2010
2009
2008
2007
2001
2002
2000
1999
1998
1997
1993
1992
1991
1990
1966
1965
1964
1963
1967
1968
1984
1983
1970
1969
1958
1962
1961
1960
1959
1957
1956
1955
1954
1953
1952
1951
1950
1949
1948
1947
1946
1945
1944
1943
1942
1941
1940
1939
1938
1937
1936
1935
1934
1933
1932
1931
1930
1929
1928
1927
1926
1925
1924
1923
1922
2097
2096
2095
2094
2093
2092
2091
2090
2089
2088
2086
2085
2087
2081
2080
2114
2115
2116
2117
2118
1607
2196
2195
2183
2182
2181
2180
2179
2178
2171
2167
2158
2159
2356
2355
2354
2353
2352
2363
2366
2369
2410
13
19
31
32
1283
1282
1272
1273
1263
1262
1260
1258
1257
1256
1218
1217
1216
1215
1214
1207
1206
1205
1204
1203
1202
1201
1200
1199
1198
1197
1179
1180
1181
1182
1183
1184
1185
1186
1187
1188
171
180
183
182
255
254
256
257
258
259
260
261
262
263
264
265
266
267
268
269
270
271
272
273
274
275
276
277
278
279
280
281
282
283
284
285
286
287
288
289
290
291
292
293
294
295
296
297
298
299
300
399
400
401
402
403
404
405
406
407
408
409
410
411
412
413
414
415
416
417
418
419
421
420
964
965
966
967
968
969
970
971
972
973
974
975
976
977
978
979
982
983
984
985
986
987
1097
1098
1094
1092
1091
1090
1120
1121
1122
1069
1067
1065
1064
1061
1063
1062
1033
1034
1035
1036
1037
1038
1039
1426
1425
1424
1423
1398
1417
1416
1415
1407
1405
1404
1343
1344
1345
1346
1347
1316
1302
2408
1311
1325
1333
1438
1440
1441
1443
1448
1449
1077
1076
1079
1002
1001
1000
999
998
995
994
907
906
905
904
903
913
922
921
955
954
948
946
945
944
474
473
475
476
477
478
479
480
481
482
483
484
485
486
487
493
492
494
495
496
502
501
497
499
500
498
491
490
489
488
463
462
464
461
460
459
458
457
456
455
454
453
452
451
450
449
448
447
446
445
444
443
442
441
440
439
438
437
436
435
434
433
432
431
430
429
428
427
426
425
424
423
422
960
961
962
963
980
981
1433
1334
1324
1313
1312
1307
2403
6
15
17
1298
1299
1294
1293
1292
1290
1289
1288
1287
1286
1285
1280
1374
1375
1376
1377
1378
1379
1380
1381
1382
1383
1384
1244
1245
1229
1230
1234
1233
1235
1236
1237
1238
1044
1045
1046
1047
1051
1050
1052
1054
1055
1056
1057
1126
1127
1116
1117
1125
1124
1123
1118
1119
1115
1114
1113
1112
1133
1132
1128
1129
1130
1131
1135
1134
1110
1109
1111
1108
1107
1106
1105
1104
370
371
372
373
374
375
376
377
378
379
380
381
382
383
384
385
386
387
388
389
390
391
392
393
394
395
396
397
398
301
302
303
304
305
306
307
308
309
310
311
312
313
314
315
316
317
318
319
320
321
322
323
324
325
326
327
328
329
330
332
331
340
341
342
339
338
337
336
333
334
335
369
368
367
365
366
364
363
362
361
360
1138
1139
1140
1141
1137
1136
1142
1143
1144
1146
1145
1151
1152
1153
1154
1155
1156
1157
1158
1159
1160
1161
1162
1163
1165
1164
1232
1231
1226
1227
1228
1249
1250
1251
1252
1274
1275
1276
1277
1278
1279
1281
1284
1295
1296
1297
18
14
2411
2392
-1
EOF
